# s41.in

dimension	2
atom_style atomic 
units metal 
boundary f f p

read_data	dynamic_morse_1d_initial_configuration_lammps.txt
group left id <= 1 
group bound id <= 1 
group mobile subtract all bound 

newton on
pair_style morse 6.0 
pair_coeff * * 0.3429 1.3588 2.866                            
neighbor 3.0 bin
mass 1 63.546

fix 2d all enforce2d
fix sf all store/force
fix fix bound setforce 0.0 0.0 NULL

dump 1 all custom 1 dump.lammpstrj id type x y z f_sf[1]

fix ther all nve

thermo 1
thermo_style custom step epair ke etotal temp press

timestep 0.001
run 10


